# Objective value = 21
WA1n 0
WA1p 0
WA2n 1
WA2p 0
WB1n 0
WB1p 0
WB2n 1
WB2p 0
WC1n 0
WC1p 1
WD1n 1
WD1p 0
WD2n 1
WD2p 0
WE1n 1
WE1p 0
WE2n 1
WE2p 0
WF1n 1
WF1p 0
WF2n 1
WF2p 0
WG1n 0
WG1p 5
WG2n 0
WG2p 1
WT1n 0
WT1p 0
5 7
a 0
b 0
c 0
d 0
e 1
f 0
g 0
h 0
i 0
j 0
k 0
l 1
m 1
n 0
